# Solution for model r10_t18_m5_7
# Finished Task: 16 / 18
# Makespan: 618.0, Total Distance: 154.0, Total Time: 2.3678
# R O S F
0 0 26 510.0 510.0
1 1 11 222.0 222.0
2 2 23 482.0 482.0
3 3 20 303.0 303.0
4 4 24 169.0 169.0
5 5 13 117.0 117.0
6 6 15 327.0 327.0
7 7 10 509.0 509.0
8 8 14 103.0 103.0
9 9 -1 618.0 618.0
10 7 27 521.0 559.0
11 1 17 228.0 250.0
12 -1 -1 574.0 596.0
13 5 -1 242.0 270.0
14 8 16 107.0 142.0
15 6 -1 342.0 368.0
16 8 18 270.0 306.0
17 1 -1 423.0 454.0
18 8 22 400.0 423.0
19 -1 -1 596.0 618.0
20 3 25 347.0 377.0
21 4 -1 401.0 437.0
22 8 -1 488.0 521.0
23 2 -1 502.0 526.0
24 4 21 186.0 222.0
25 3 -1 377.0 401.0
26 0 -1 526.0 547.0
27 7 -1 598.0 618.0
